convert.cnf
p cnf 606 2300
1 2 3 0
-1 -2 -3 0
2 3 4 0
-2 -3 -4 0
3 4 5 0
-3 -4 -5 0
4 5 6 0
-4 -5 -6 0
7 8 9 0
-7 -8 -9 0
8 9 10 0
-8 -9 -10 0
9 10 11 0
-9 -10 -11 0
10 11 12 0
-10 -11 -12 0
13 14 15 0
-13 -14 -15 0
14 15 16 0
-14 -15 -16 0
15 16 17 0
-15 -16 -17 0
16 17 18 0
-16 -17 -18 0
19 20 21 0
-19 -20 -21 0
20 21 22 0
-20 -21 -22 0
21 22 23 0
-21 -22 -23 0
22 23 24 0
-22 -23 -24 0
25 26 27 0
-25 -26 -27 0
26 27 28 0
-26 -27 -28 0
27 28 29 0
-27 -28 -29 0
28 29 30 0
-28 -29 -30 0
31 32 33 0
-31 -32 -33 0
32 33 34 0
-32 -33 -34 0
33 34 35 0
-33 -34 -35 0
34 35 36 0
-34 -35 -36 0
1 7 13 0
-1 -7 -13 0
2 8 14 0
-2 -8 -14 0
3 9 15 0
-3 -9 -15 0
4 10 16 0
-4 -10 -16 0
5 11 17 0
-5 -11 -17 0
6 12 18 0
-6 -12 -18 0
7 13 19 0
-7 -13 -19 0
8 14 20 0
-8 -14 -20 0
9 15 21 0
-9 -15 -21 0
10 16 22 0
-10 -16 -22 0
11 17 23 0
-11 -17 -23 0
12 18 24 0
-12 -18 -24 0
13 19 25 0
-13 -19 -25 0
14 20 26 0
-14 -20 -26 0
15 21 27 0
-15 -21 -27 0
16 22 28 0
-16 -22 -28 0
17 23 29 0
-17 -23 -29 0
18 24 30 0
-18 -24 -30 0
19 25 31 0
-19 -25 -31 0
20 26 32 0
-20 -26 -32 0
21 27 33 0
-21 -27 -33 0
22 28 34 0
-22 -28 -34 0
23 29 35 0
-23 -29 -35 0
24 30 36 0
-24 -30 -36 0
1 2 3 4 0 
-1 -2 -3 -4 0
1 7 13 19 0
-1 -7 -13 -19 0
7 8 9 10 0 
-7 -8 -9 -10 0
2 8 14 20 0
-2 -8 -14 -20 0
13 14 15 16 0 
-13 -14 -15 -16 0
3 9 15 21 0
-3 -9 -15 -21 0
19 20 21 22 0 
-19 -20 -21 -22 0
4 10 16 22 0
-4 -10 -16 -22 0
25 26 27 28 0 
-25 -26 -27 -28 0
5 11 17 23 0
-5 -11 -17 -23 0
31 32 33 34 0 
-31 -32 -33 -34 0
6 12 18 24 0
-6 -12 -18 -24 0
1 2 3 5 0 
-1 -2 -3 -5 0
1 7 13 25 0
-1 -7 -13 -25 0
7 8 9 11 0 
-7 -8 -9 -11 0
2 8 14 26 0
-2 -8 -14 -26 0
13 14 15 17 0 
-13 -14 -15 -17 0
3 9 15 27 0
-3 -9 -15 -27 0
19 20 21 23 0 
-19 -20 -21 -23 0
4 10 16 28 0
-4 -10 -16 -28 0
25 26 27 29 0 
-25 -26 -27 -29 0
5 11 17 29 0
-5 -11 -17 -29 0
31 32 33 35 0 
-31 -32 -33 -35 0
6 12 18 30 0
-6 -12 -18 -30 0
1 2 3 6 0 
-1 -2 -3 -6 0
1 7 13 31 0
-1 -7 -13 -31 0
7 8 9 12 0 
-7 -8 -9 -12 0
2 8 14 32 0
-2 -8 -14 -32 0
13 14 15 18 0 
-13 -14 -15 -18 0
3 9 15 33 0
-3 -9 -15 -33 0
19 20 21 24 0 
-19 -20 -21 -24 0
4 10 16 34 0
-4 -10 -16 -34 0
25 26 27 30 0 
-25 -26 -27 -30 0
5 11 17 35 0
-5 -11 -17 -35 0
31 32 33 36 0 
-31 -32 -33 -36 0
6 12 18 36 0
-6 -12 -18 -36 0
1 2 4 5 0 
-1 -2 -4 -5 0
1 7 19 25 0
-1 -7 -19 -25 0
7 8 10 11 0 
-7 -8 -10 -11 0
2 8 20 26 0
-2 -8 -20 -26 0
13 14 16 17 0 
-13 -14 -16 -17 0
3 9 21 27 0
-3 -9 -21 -27 0
19 20 22 23 0 
-19 -20 -22 -23 0
4 10 22 28 0
-4 -10 -22 -28 0
25 26 28 29 0 
-25 -26 -28 -29 0
5 11 23 29 0
-5 -11 -23 -29 0
31 32 34 35 0 
-31 -32 -34 -35 0
6 12 24 30 0
-6 -12 -24 -30 0
1 2 4 6 0 
-1 -2 -4 -6 0
1 7 19 31 0
-1 -7 -19 -31 0
7 8 10 12 0 
-7 -8 -10 -12 0
2 8 20 32 0
-2 -8 -20 -32 0
13 14 16 18 0 
-13 -14 -16 -18 0
3 9 21 33 0
-3 -9 -21 -33 0
19 20 22 24 0 
-19 -20 -22 -24 0
4 10 22 34 0
-4 -10 -22 -34 0
25 26 28 30 0 
-25 -26 -28 -30 0
5 11 23 35 0
-5 -11 -23 -35 0
31 32 34 36 0 
-31 -32 -34 -36 0
6 12 24 36 0
-6 -12 -24 -36 0
1 2 5 6 0 
-1 -2 -5 -6 0
1 7 25 31 0
-1 -7 -25 -31 0
7 8 11 12 0 
-7 -8 -11 -12 0
2 8 26 32 0
-2 -8 -26 -32 0
13 14 17 18 0 
-13 -14 -17 -18 0
3 9 27 33 0
-3 -9 -27 -33 0
19 20 23 24 0 
-19 -20 -23 -24 0
4 10 28 34 0
-4 -10 -28 -34 0
25 26 29 30 0 
-25 -26 -29 -30 0
5 11 29 35 0
-5 -11 -29 -35 0
31 32 35 36 0 
-31 -32 -35 -36 0
6 12 30 36 0
-6 -12 -30 -36 0
1 3 4 5 0 
-1 -3 -4 -5 0
1 13 19 25 0
-1 -13 -19 -25 0
7 9 10 11 0 
-7 -9 -10 -11 0
2 14 20 26 0
-2 -14 -20 -26 0
13 15 16 17 0 
-13 -15 -16 -17 0
3 15 21 27 0
-3 -15 -21 -27 0
19 21 22 23 0 
-19 -21 -22 -23 0
4 16 22 28 0
-4 -16 -22 -28 0
25 27 28 29 0 
-25 -27 -28 -29 0
5 17 23 29 0
-5 -17 -23 -29 0
31 33 34 35 0 
-31 -33 -34 -35 0
6 18 24 30 0
-6 -18 -24 -30 0
1 3 4 6 0 
-1 -3 -4 -6 0
1 13 19 31 0
-1 -13 -19 -31 0
7 9 10 12 0 
-7 -9 -10 -12 0
2 14 20 32 0
-2 -14 -20 -32 0
13 15 16 18 0 
-13 -15 -16 -18 0
3 15 21 33 0
-3 -15 -21 -33 0
19 21 22 24 0 
-19 -21 -22 -24 0
4 16 22 34 0
-4 -16 -22 -34 0
25 27 28 30 0 
-25 -27 -28 -30 0
5 17 23 35 0
-5 -17 -23 -35 0
31 33 34 36 0 
-31 -33 -34 -36 0
6 18 24 36 0
-6 -18 -24 -36 0
1 3 5 6 0 
-1 -3 -5 -6 0
1 13 25 31 0
-1 -13 -25 -31 0
7 9 11 12 0 
-7 -9 -11 -12 0
2 14 26 32 0
-2 -14 -26 -32 0
13 15 17 18 0 
-13 -15 -17 -18 0
3 15 27 33 0
-3 -15 -27 -33 0
19 21 23 24 0 
-19 -21 -23 -24 0
4 16 28 34 0
-4 -16 -28 -34 0
25 27 29 30 0 
-25 -27 -29 -30 0
5 17 29 35 0
-5 -17 -29 -35 0
31 33 35 36 0 
-31 -33 -35 -36 0
6 18 30 36 0
-6 -18 -30 -36 0
1 4 5 6 0 
-1 -4 -5 -6 0
1 19 25 31 0
-1 -19 -25 -31 0
7 10 11 12 0 
-7 -10 -11 -12 0
2 20 26 32 0
-2 -20 -26 -32 0
13 16 17 18 0 
-13 -16 -17 -18 0
3 21 27 33 0
-3 -21 -27 -33 0
19 22 23 24 0 
-19 -22 -23 -24 0
4 22 28 34 0
-4 -22 -28 -34 0
25 28 29 30 0 
-25 -28 -29 -30 0
5 23 29 35 0
-5 -23 -29 -35 0
31 34 35 36 0 
-31 -34 -35 -36 0
6 24 30 36 0
-6 -24 -30 -36 0
2 3 4 5 0 
-2 -3 -4 -5 0
7 13 19 25 0
-7 -13 -19 -25 0
8 9 10 11 0 
-8 -9 -10 -11 0
8 14 20 26 0
-8 -14 -20 -26 0
14 15 16 17 0 
-14 -15 -16 -17 0
9 15 21 27 0
-9 -15 -21 -27 0
20 21 22 23 0 
-20 -21 -22 -23 0
10 16 22 28 0
-10 -16 -22 -28 0
26 27 28 29 0 
-26 -27 -28 -29 0
11 17 23 29 0
-11 -17 -23 -29 0
32 33 34 35 0 
-32 -33 -34 -35 0
12 18 24 30 0
-12 -18 -24 -30 0
2 3 4 6 0 
-2 -3 -4 -6 0
7 13 19 31 0
-7 -13 -19 -31 0
8 9 10 12 0 
-8 -9 -10 -12 0
8 14 20 32 0
-8 -14 -20 -32 0
14 15 16 18 0 
-14 -15 -16 -18 0
9 15 21 33 0
-9 -15 -21 -33 0
20 21 22 24 0 
-20 -21 -22 -24 0
10 16 22 34 0
-10 -16 -22 -34 0
26 27 28 30 0 
-26 -27 -28 -30 0
11 17 23 35 0
-11 -17 -23 -35 0
32 33 34 36 0 
-32 -33 -34 -36 0
12 18 24 36 0
-12 -18 -24 -36 0
2 3 5 6 0 
-2 -3 -5 -6 0
7 13 25 31 0
-7 -13 -25 -31 0
8 9 11 12 0 
-8 -9 -11 -12 0
8 14 26 32 0
-8 -14 -26 -32 0
14 15 17 18 0 
-14 -15 -17 -18 0
9 15 27 33 0
-9 -15 -27 -33 0
20 21 23 24 0 
-20 -21 -23 -24 0
10 16 28 34 0
-10 -16 -28 -34 0
26 27 29 30 0 
-26 -27 -29 -30 0
11 17 29 35 0
-11 -17 -29 -35 0
32 33 35 36 0 
-32 -33 -35 -36 0
12 18 30 36 0
-12 -18 -30 -36 0
2 4 5 6 0 
-2 -4 -5 -6 0
7 19 25 31 0
-7 -19 -25 -31 0
8 10 11 12 0 
-8 -10 -11 -12 0
8 20 26 32 0
-8 -20 -26 -32 0
14 16 17 18 0 
-14 -16 -17 -18 0
9 21 27 33 0
-9 -21 -27 -33 0
20 22 23 24 0 
-20 -22 -23 -24 0
10 22 28 34 0
-10 -22 -28 -34 0
26 28 29 30 0 
-26 -28 -29 -30 0
11 23 29 35 0
-11 -23 -29 -35 0
32 34 35 36 0 
-32 -34 -35 -36 0
12 24 30 36 0
-12 -24 -30 -36 0
3 4 5 6 0 
-3 -4 -5 -6 0
13 19 25 31 0
-13 -19 -25 -31 0
9 10 11 12 0 
-9 -10 -11 -12 0
14 20 26 32 0
-14 -20 -26 -32 0
15 16 17 18 0 
-15 -16 -17 -18 0
15 21 27 33 0
-15 -21 -27 -33 0
21 22 23 24 0 
-21 -22 -23 -24 0
16 22 28 34 0
-16 -22 -28 -34 0
27 28 29 30 0 
-27 -28 -29 -30 0
17 23 29 35 0
-17 -23 -29 -35 0
33 34 35 36 0 
-33 -34 -35 -36 0
18 24 30 36 0
-18 -24 -30 -36 0
1 -37 0
7 -37 0
-1 -7 -37 0
-1 -38 0
-7 -38 0
1 7 38 0
2 -39 0
8 -39 0
-2 -8 -39 0
-2 -40 0
-8 -40 0
2 8 40 0
3 -41 0
9 -41 0
-3 -9 -41 0
-3 -42 0
-9 -42 0
3 9 42 0
4 -43 0
10 -43 0
-4 -10 -43 0
-4 -44 0
-10 -44 0
4 10 44 0
5 -45 0
11 -45 0
-5 -11 -45 0
-5 -46 0
-11 -46 0
5 11 46 0
6 -47 0
12 -47 0
-6 -12 -47 0
-6 -48 0
-12 -48 0
6 12 48 0
1 -49 0
13 -49 0
-1 -13 -49 0
-1 -50 0
-13 -50 0
1 13 50 0
2 -51 0
14 -51 0
-2 -14 -51 0
-2 -52 0
-14 -52 0
2 14 52 0
3 -53 0
15 -53 0
-3 -15 -53 0
-3 -54 0
-15 -54 0
3 15 54 0
4 -55 0
16 -55 0
-4 -16 -55 0
-4 -56 0
-16 -56 0
4 16 56 0
5 -57 0
17 -57 0
-5 -17 -57 0
-5 -58 0
-17 -58 0
5 17 58 0
6 -59 0
18 -59 0
-6 -18 -59 0
-6 -60 0
-18 -60 0
6 18 60 0
1 -61 0
19 -61 0
-1 -19 -61 0
-1 -62 0
-19 -62 0
1 19 62 0
2 -63 0
20 -63 0
-2 -20 -63 0
-2 -64 0
-20 -64 0
2 20 64 0
3 -65 0
21 -65 0
-3 -21 -65 0
-3 -66 0
-21 -66 0
3 21 66 0
4 -67 0
22 -67 0
-4 -22 -67 0
-4 -68 0
-22 -68 0
4 22 68 0
5 -69 0
23 -69 0
-5 -23 -69 0
-5 -70 0
-23 -70 0
5 23 70 0
6 -71 0
24 -71 0
-6 -24 -71 0
-6 -72 0
-24 -72 0
6 24 72 0
1 -73 0
25 -73 0
-1 -25 -73 0
-1 -74 0
-25 -74 0
1 25 74 0
2 -75 0
26 -75 0
-2 -26 -75 0
-2 -76 0
-26 -76 0
2 26 76 0
3 -77 0
27 -77 0
-3 -27 -77 0
-3 -78 0
-27 -78 0
3 27 78 0
4 -79 0
28 -79 0
-4 -28 -79 0
-4 -80 0
-28 -80 0
4 28 80 0
5 -81 0
29 -81 0
-5 -29 -81 0
-5 -82 0
-29 -82 0
5 29 82 0
6 -83 0
30 -83 0
-6 -30 -83 0
-6 -84 0
-30 -84 0
6 30 84 0
1 -85 0
31 -85 0
-1 -31 -85 0
-1 -86 0
-31 -86 0
1 31 86 0
2 -87 0
32 -87 0
-2 -32 -87 0
-2 -88 0
-32 -88 0
2 32 88 0
3 -89 0
33 -89 0
-3 -33 -89 0
-3 -90 0
-33 -90 0
3 33 90 0
4 -91 0
34 -91 0
-4 -34 -91 0
-4 -92 0
-34 -92 0
4 34 92 0
5 -93 0
35 -93 0
-5 -35 -93 0
-5 -94 0
-35 -94 0
5 35 94 0
6 -95 0
36 -95 0
-6 -36 -95 0
-6 -96 0
-36 -96 0
6 36 96 0
7 -97 0
13 -97 0
-7 -13 -97 0
-7 -98 0
-13 -98 0
7 13 98 0
8 -99 0
14 -99 0
-8 -14 -99 0
-8 -100 0
-14 -100 0
8 14 100 0
9 -101 0
15 -101 0
-9 -15 -101 0
-9 -102 0
-15 -102 0
9 15 102 0
10 -103 0
16 -103 0
-10 -16 -103 0
-10 -104 0
-16 -104 0
10 16 104 0
11 -105 0
17 -105 0
-11 -17 -105 0
-11 -106 0
-17 -106 0
11 17 106 0
12 -107 0
18 -107 0
-12 -18 -107 0
-12 -108 0
-18 -108 0
12 18 108 0
7 -109 0
19 -109 0
-7 -19 -109 0
-7 -110 0
-19 -110 0
7 19 110 0
8 -111 0
20 -111 0
-8 -20 -111 0
-8 -112 0
-20 -112 0
8 20 112 0
9 -113 0
21 -113 0
-9 -21 -113 0
-9 -114 0
-21 -114 0
9 21 114 0
10 -115 0
22 -115 0
-10 -22 -115 0
-10 -116 0
-22 -116 0
10 22 116 0
11 -117 0
23 -117 0
-11 -23 -117 0
-11 -118 0
-23 -118 0
11 23 118 0
12 -119 0
24 -119 0
-12 -24 -119 0
-12 -120 0
-24 -120 0
12 24 120 0
7 -121 0
25 -121 0
-7 -25 -121 0
-7 -122 0
-25 -122 0
7 25 122 0
8 -123 0
26 -123 0
-8 -26 -123 0
-8 -124 0
-26 -124 0
8 26 124 0
9 -125 0
27 -125 0
-9 -27 -125 0
-9 -126 0
-27 -126 0
9 27 126 0
10 -127 0
28 -127 0
-10 -28 -127 0
-10 -128 0
-28 -128 0
10 28 128 0
11 -129 0
29 -129 0
-11 -29 -129 0
-11 -130 0
-29 -130 0
11 29 130 0
12 -131 0
30 -131 0
-12 -30 -131 0
-12 -132 0
-30 -132 0
12 30 132 0
7 -133 0
31 -133 0
-7 -31 -133 0
-7 -134 0
-31 -134 0
7 31 134 0
8 -135 0
32 -135 0
-8 -32 -135 0
-8 -136 0
-32 -136 0
8 32 136 0
9 -137 0
33 -137 0
-9 -33 -137 0
-9 -138 0
-33 -138 0
9 33 138 0
10 -139 0
34 -139 0
-10 -34 -139 0
-10 -140 0
-34 -140 0
10 34 140 0
11 -141 0
35 -141 0
-11 -35 -141 0
-11 -142 0
-35 -142 0
11 35 142 0
12 -143 0
36 -143 0
-12 -36 -143 0
-12 -144 0
-36 -144 0
12 36 144 0
13 -145 0
19 -145 0
-13 -19 -145 0
-13 -146 0
-19 -146 0
13 19 146 0
14 -147 0
20 -147 0
-14 -20 -147 0
-14 -148 0
-20 -148 0
14 20 148 0
15 -149 0
21 -149 0
-15 -21 -149 0
-15 -150 0
-21 -150 0
15 21 150 0
16 -151 0
22 -151 0
-16 -22 -151 0
-16 -152 0
-22 -152 0
16 22 152 0
17 -153 0
23 -153 0
-17 -23 -153 0
-17 -154 0
-23 -154 0
17 23 154 0
18 -155 0
24 -155 0
-18 -24 -155 0
-18 -156 0
-24 -156 0
18 24 156 0
13 -157 0
25 -157 0
-13 -25 -157 0
-13 -158 0
-25 -158 0
13 25 158 0
14 -159 0
26 -159 0
-14 -26 -159 0
-14 -160 0
-26 -160 0
14 26 160 0
15 -161 0
27 -161 0
-15 -27 -161 0
-15 -162 0
-27 -162 0
15 27 162 0
16 -163 0
28 -163 0
-16 -28 -163 0
-16 -164 0
-28 -164 0
16 28 164 0
17 -165 0
29 -165 0
-17 -29 -165 0
-17 -166 0
-29 -166 0
17 29 166 0
18 -167 0
30 -167 0
-18 -30 -167 0
-18 -168 0
-30 -168 0
18 30 168 0
13 -169 0
31 -169 0
-13 -31 -169 0
-13 -170 0
-31 -170 0
13 31 170 0
14 -171 0
32 -171 0
-14 -32 -171 0
-14 -172 0
-32 -172 0
14 32 172 0
15 -173 0
33 -173 0
-15 -33 -173 0
-15 -174 0
-33 -174 0
15 33 174 0
16 -175 0
34 -175 0
-16 -34 -175 0
-16 -176 0
-34 -176 0
16 34 176 0
17 -177 0
35 -177 0
-17 -35 -177 0
-17 -178 0
-35 -178 0
17 35 178 0
18 -179 0
36 -179 0
-18 -36 -179 0
-18 -180 0
-36 -180 0
18 36 180 0
19 -181 0
25 -181 0
-19 -25 -181 0
-19 -182 0
-25 -182 0
19 25 182 0
20 -183 0
26 -183 0
-20 -26 -183 0
-20 -184 0
-26 -184 0
20 26 184 0
21 -185 0
27 -185 0
-21 -27 -185 0
-21 -186 0
-27 -186 0
21 27 186 0
22 -187 0
28 -187 0
-22 -28 -187 0
-22 -188 0
-28 -188 0
22 28 188 0
23 -189 0
29 -189 0
-23 -29 -189 0
-23 -190 0
-29 -190 0
23 29 190 0
24 -191 0
30 -191 0
-24 -30 -191 0
-24 -192 0
-30 -192 0
24 30 192 0
19 -193 0
31 -193 0
-19 -31 -193 0
-19 -194 0
-31 -194 0
19 31 194 0
20 -195 0
32 -195 0
-20 -32 -195 0
-20 -196 0
-32 -196 0
20 32 196 0
21 -197 0
33 -197 0
-21 -33 -197 0
-21 -198 0
-33 -198 0
21 33 198 0
22 -199 0
34 -199 0
-22 -34 -199 0
-22 -200 0
-34 -200 0
22 34 200 0
23 -201 0
35 -201 0
-23 -35 -201 0
-23 -202 0
-35 -202 0
23 35 202 0
24 -203 0
36 -203 0
-24 -36 -203 0
-24 -204 0
-36 -204 0
24 36 204 0
25 -205 0
31 -205 0
-25 -31 -205 0
-25 -206 0
-31 -206 0
25 31 206 0
26 -207 0
32 -207 0
-26 -32 -207 0
-26 -208 0
-32 -208 0
26 32 208 0
27 -209 0
33 -209 0
-27 -33 -209 0
-27 -210 0
-33 -210 0
27 33 210 0
28 -211 0
34 -211 0
-28 -34 -211 0
-28 -212 0
-34 -212 0
28 34 212 0
29 -213 0
35 -213 0
-29 -35 -213 0
-29 -214 0
-35 -214 0
29 35 214 0
30 -215 0
36 -215 0
-30 -36 -215 0
-30 -216 0
-36 -216 0
30 36 216 0
-37 217 0
-38 217 0
37 38 -217 0
-39 218 0
-40 218 0
39 40 -218 0
-41 219 0
-42 219 0
41 42 -219 0
-43 220 0
-44 220 0
43 44 -220 0
-45 221 0
-46 221 0
45 46 -221 0
-47 222 0
-48 222 0
47 48 -222 0
223 217 0
223 218 0
223 219 0
223 220 0
223 221 0
223 222 0
223 -217 -218 -219 -220 -221 -222 0
-49 224 0
-50 224 0
49 50 -224 0
-51 225 0
-52 225 0
51 52 -225 0
-53 226 0
-54 226 0
53 54 -226 0
-55 227 0
-56 227 0
55 56 -227 0
-57 228 0
-58 228 0
57 58 -228 0
-59 229 0
-60 229 0
59 60 -229 0
230 217 0
230 218 0
230 219 0
230 220 0
230 221 0
230 222 0
230 -217 -218 -219 -220 -221 -222 0
-61 231 0
-62 231 0
61 62 -231 0
-63 232 0
-64 232 0
63 64 -232 0
-65 233 0
-66 233 0
65 66 -233 0
-67 234 0
-68 234 0
67 68 -234 0
-69 235 0
-70 235 0
69 70 -235 0
-71 236 0
-72 236 0
71 72 -236 0
237 217 0
237 218 0
237 219 0
237 220 0
237 221 0
237 222 0
237 -217 -218 -219 -220 -221 -222 0
-73 238 0
-74 238 0
73 74 -238 0
-75 239 0
-76 239 0
75 76 -239 0
-77 240 0
-78 240 0
77 78 -240 0
-79 241 0
-80 241 0
79 80 -241 0
-81 242 0
-82 242 0
81 82 -242 0
-83 243 0
-84 243 0
83 84 -243 0
244 217 0
244 218 0
244 219 0
244 220 0
244 221 0
244 222 0
244 -217 -218 -219 -220 -221 -222 0
-85 245 0
-86 245 0
85 86 -245 0
-87 246 0
-88 246 0
87 88 -246 0
-89 247 0
-90 247 0
89 90 -247 0
-91 248 0
-92 248 0
91 92 -248 0
-93 249 0
-94 249 0
93 94 -249 0
-95 250 0
-96 250 0
95 96 -250 0
251 217 0
251 218 0
251 219 0
251 220 0
251 221 0
251 222 0
251 -217 -218 -219 -220 -221 -222 0
-37 252 0
-38 252 0
37 38 -252 0
-39 253 0
-40 253 0
39 40 -253 0
-41 254 0
-42 254 0
41 42 -254 0
-43 255 0
-44 255 0
43 44 -255 0
-45 256 0
-46 256 0
45 46 -256 0
-47 257 0
-48 257 0
47 48 -257 0
258 252 0
258 253 0
258 254 0
258 255 0
258 256 0
258 257 0
258 -252 -253 -254 -255 -256 -257 0
-49 259 0
-50 259 0
49 50 -259 0
-51 260 0
-52 260 0
51 52 -260 0
-53 261 0
-54 261 0
53 54 -261 0
-55 262 0
-56 262 0
55 56 -262 0
-57 263 0
-58 263 0
57 58 -263 0
-59 264 0
-60 264 0
59 60 -264 0
265 252 0
265 253 0
265 254 0
265 255 0
265 256 0
265 257 0
265 -252 -253 -254 -255 -256 -257 0
-61 266 0
-62 266 0
61 62 -266 0
-63 267 0
-64 267 0
63 64 -267 0
-65 268 0
-66 268 0
65 66 -268 0
-67 269 0
-68 269 0
67 68 -269 0
-69 270 0
-70 270 0
69 70 -270 0
-71 271 0
-72 271 0
71 72 -271 0
272 252 0
272 253 0
272 254 0
272 255 0
272 256 0
272 257 0
272 -252 -253 -254 -255 -256 -257 0
-73 273 0
-74 273 0
73 74 -273 0
-75 274 0
-76 274 0
75 76 -274 0
-77 275 0
-78 275 0
77 78 -275 0
-79 276 0
-80 276 0
79 80 -276 0
-81 277 0
-82 277 0
81 82 -277 0
-83 278 0
-84 278 0
83 84 -278 0
279 252 0
279 253 0
279 254 0
279 255 0
279 256 0
279 257 0
279 -252 -253 -254 -255 -256 -257 0
-37 280 0
-38 280 0
37 38 -280 0
-39 281 0
-40 281 0
39 40 -281 0
-41 282 0
-42 282 0
41 42 -282 0
-43 283 0
-44 283 0
43 44 -283 0
-45 284 0
-46 284 0
45 46 -284 0
-47 285 0
-48 285 0
47 48 -285 0
286 280 0
286 281 0
286 282 0
286 283 0
286 284 0
286 285 0
286 -280 -281 -282 -283 -284 -285 0
-49 287 0
-50 287 0
49 50 -287 0
-51 288 0
-52 288 0
51 52 -288 0
-53 289 0
-54 289 0
53 54 -289 0
-55 290 0
-56 290 0
55 56 -290 0
-57 291 0
-58 291 0
57 58 -291 0
-59 292 0
-60 292 0
59 60 -292 0
293 280 0
293 281 0
293 282 0
293 283 0
293 284 0
293 285 0
293 -280 -281 -282 -283 -284 -285 0
-61 294 0
-62 294 0
61 62 -294 0
-63 295 0
-64 295 0
63 64 -295 0
-65 296 0
-66 296 0
65 66 -296 0
-67 297 0
-68 297 0
67 68 -297 0
-69 298 0
-70 298 0
69 70 -298 0
-71 299 0
-72 299 0
71 72 -299 0
300 280 0
300 281 0
300 282 0
300 283 0
300 284 0
300 285 0
300 -280 -281 -282 -283 -284 -285 0
-37 301 0
-38 301 0
37 38 -301 0
-39 302 0
-40 302 0
39 40 -302 0
-41 303 0
-42 303 0
41 42 -303 0
-43 304 0
-44 304 0
43 44 -304 0
-45 305 0
-46 305 0
45 46 -305 0
-47 306 0
-48 306 0
47 48 -306 0
307 301 0
307 302 0
307 303 0
307 304 0
307 305 0
307 306 0
307 -301 -302 -303 -304 -305 -306 0
-49 308 0
-50 308 0
49 50 -308 0
-51 309 0
-52 309 0
51 52 -309 0
-53 310 0
-54 310 0
53 54 -310 0
-55 311 0
-56 311 0
55 56 -311 0
-57 312 0
-58 312 0
57 58 -312 0
-59 313 0
-60 313 0
59 60 -313 0
314 301 0
314 302 0
314 303 0
314 304 0
314 305 0
314 306 0
314 -301 -302 -303 -304 -305 -306 0
-37 315 0
-38 315 0
37 38 -315 0
-39 316 0
-40 316 0
39 40 -316 0
-41 317 0
-42 317 0
41 42 -317 0
-43 318 0
-44 318 0
43 44 -318 0
-45 319 0
-46 319 0
45 46 -319 0
-47 320 0
-48 320 0
47 48 -320 0
321 315 0
321 316 0
321 317 0
321 318 0
321 319 0
321 320 0
321 -315 -316 -317 -318 -319 -320 0
1 -322 0
2 -322 0
-1 -2 -322 0
-1 -323 0
-2 -323 0
1 2 323 0
7 -324 0
8 -324 0
-7 -8 -324 0
-7 -325 0
-8 -325 0
7 8 325 0
13 -326 0
14 -326 0
-13 -14 -326 0
-13 -327 0
-14 -327 0
13 14 327 0
19 -328 0
20 -328 0
-19 -20 -328 0
-19 -329 0
-20 -329 0
19 20 329 0
25 -330 0
26 -330 0
-25 -26 -330 0
-25 -331 0
-26 -331 0
25 26 331 0
31 -332 0
32 -332 0
-31 -32 -332 0
-31 -333 0
-32 -333 0
31 32 333 0
1 -334 0
3 -334 0
-1 -3 -334 0
-1 -335 0
-3 -335 0
1 3 335 0
7 -336 0
9 -336 0
-7 -9 -336 0
-7 -337 0
-9 -337 0
7 9 337 0
13 -338 0
15 -338 0
-13 -15 -338 0
-13 -339 0
-15 -339 0
13 15 339 0
19 -340 0
21 -340 0
-19 -21 -340 0
-19 -341 0
-21 -341 0
19 21 341 0
25 -342 0
27 -342 0
-25 -27 -342 0
-25 -343 0
-27 -343 0
25 27 343 0
31 -344 0
33 -344 0
-31 -33 -344 0
-31 -345 0
-33 -345 0
31 33 345 0
1 -346 0
4 -346 0
-1 -4 -346 0
-1 -347 0
-4 -347 0
1 4 347 0
7 -348 0
10 -348 0
-7 -10 -348 0
-7 -349 0
-10 -349 0
7 10 349 0
13 -350 0
16 -350 0
-13 -16 -350 0
-13 -351 0
-16 -351 0
13 16 351 0
19 -352 0
22 -352 0
-19 -22 -352 0
-19 -353 0
-22 -353 0
19 22 353 0
25 -354 0
28 -354 0
-25 -28 -354 0
-25 -355 0
-28 -355 0
25 28 355 0
31 -356 0
34 -356 0
-31 -34 -356 0
-31 -357 0
-34 -357 0
31 34 357 0
1 -358 0
5 -358 0
-1 -5 -358 0
-1 -359 0
-5 -359 0
1 5 359 0
7 -360 0
11 -360 0
-7 -11 -360 0
-7 -361 0
-11 -361 0
7 11 361 0
13 -362 0
17 -362 0
-13 -17 -362 0
-13 -363 0
-17 -363 0
13 17 363 0
19 -364 0
23 -364 0
-19 -23 -364 0
-19 -365 0
-23 -365 0
19 23 365 0
25 -366 0
29 -366 0
-25 -29 -366 0
-25 -367 0
-29 -367 0
25 29 367 0
31 -368 0
35 -368 0
-31 -35 -368 0
-31 -369 0
-35 -369 0
31 35 369 0
1 -370 0
6 -370 0
-1 -6 -370 0
-1 -371 0
-6 -371 0
1 6 371 0
7 -372 0
12 -372 0
-7 -12 -372 0
-7 -373 0
-12 -373 0
7 12 373 0
13 -374 0
18 -374 0
-13 -18 -374 0
-13 -375 0
-18 -375 0
13 18 375 0
19 -376 0
24 -376 0
-19 -24 -376 0
-19 -377 0
-24 -377 0
19 24 377 0
25 -378 0
30 -378 0
-25 -30 -378 0
-25 -379 0
-30 -379 0
25 30 379 0
31 -380 0
36 -380 0
-31 -36 -380 0
-31 -381 0
-36 -381 0
31 36 381 0
2 -382 0
3 -382 0
-2 -3 -382 0
-2 -383 0
-3 -383 0
2 3 383 0
8 -384 0
9 -384 0
-8 -9 -384 0
-8 -385 0
-9 -385 0
8 9 385 0
14 -386 0
15 -386 0
-14 -15 -386 0
-14 -387 0
-15 -387 0
14 15 387 0
20 -388 0
21 -388 0
-20 -21 -388 0
-20 -389 0
-21 -389 0
20 21 389 0
26 -390 0
27 -390 0
-26 -27 -390 0
-26 -391 0
-27 -391 0
26 27 391 0
32 -392 0
33 -392 0
-32 -33 -392 0
-32 -393 0
-33 -393 0
32 33 393 0
2 -394 0
4 -394 0
-2 -4 -394 0
-2 -395 0
-4 -395 0
2 4 395 0
8 -396 0
10 -396 0
-8 -10 -396 0
-8 -397 0
-10 -397 0
8 10 397 0
14 -398 0
16 -398 0
-14 -16 -398 0
-14 -399 0
-16 -399 0
14 16 399 0
20 -400 0
22 -400 0
-20 -22 -400 0
-20 -401 0
-22 -401 0
20 22 401 0
26 -402 0
28 -402 0
-26 -28 -402 0
-26 -403 0
-28 -403 0
26 28 403 0
32 -404 0
34 -404 0
-32 -34 -404 0
-32 -405 0
-34 -405 0
32 34 405 0
2 -406 0
5 -406 0
-2 -5 -406 0
-2 -407 0
-5 -407 0
2 5 407 0
8 -408 0
11 -408 0
-8 -11 -408 0
-8 -409 0
-11 -409 0
8 11 409 0
14 -410 0
17 -410 0
-14 -17 -410 0
-14 -411 0
-17 -411 0
14 17 411 0
20 -412 0
23 -412 0
-20 -23 -412 0
-20 -413 0
-23 -413 0
20 23 413 0
26 -414 0
29 -414 0
-26 -29 -414 0
-26 -415 0
-29 -415 0
26 29 415 0
32 -416 0
35 -416 0
-32 -35 -416 0
-32 -417 0
-35 -417 0
32 35 417 0
2 -418 0
6 -418 0
-2 -6 -418 0
-2 -419 0
-6 -419 0
2 6 419 0
8 -420 0
12 -420 0
-8 -12 -420 0
-8 -421 0
-12 -421 0
8 12 421 0
14 -422 0
18 -422 0
-14 -18 -422 0
-14 -423 0
-18 -423 0
14 18 423 0
20 -424 0
24 -424 0
-20 -24 -424 0
-20 -425 0
-24 -425 0
20 24 425 0
26 -426 0
30 -426 0
-26 -30 -426 0
-26 -427 0
-30 -427 0
26 30 427 0
32 -428 0
36 -428 0
-32 -36 -428 0
-32 -429 0
-36 -429 0
32 36 429 0
3 -430 0
4 -430 0
-3 -4 -430 0
-3 -431 0
-4 -431 0
3 4 431 0
9 -432 0
10 -432 0
-9 -10 -432 0
-9 -433 0
-10 -433 0
9 10 433 0
15 -434 0
16 -434 0
-15 -16 -434 0
-15 -435 0
-16 -435 0
15 16 435 0
21 -436 0
22 -436 0
-21 -22 -436 0
-21 -437 0
-22 -437 0
21 22 437 0
27 -438 0
28 -438 0
-27 -28 -438 0
-27 -439 0
-28 -439 0
27 28 439 0
33 -440 0
34 -440 0
-33 -34 -440 0
-33 -441 0
-34 -441 0
33 34 441 0
3 -442 0
5 -442 0
-3 -5 -442 0
-3 -443 0
-5 -443 0
3 5 443 0
9 -444 0
11 -444 0
-9 -11 -444 0
-9 -445 0
-11 -445 0
9 11 445 0
15 -446 0
17 -446 0
-15 -17 -446 0
-15 -447 0
-17 -447 0
15 17 447 0
21 -448 0
23 -448 0
-21 -23 -448 0
-21 -449 0
-23 -449 0
21 23 449 0
27 -450 0
29 -450 0
-27 -29 -450 0
-27 -451 0
-29 -451 0
27 29 451 0
33 -452 0
35 -452 0
-33 -35 -452 0
-33 -453 0
-35 -453 0
33 35 453 0
3 -454 0
6 -454 0
-3 -6 -454 0
-3 -455 0
-6 -455 0
3 6 455 0
9 -456 0
12 -456 0
-9 -12 -456 0
-9 -457 0
-12 -457 0
9 12 457 0
15 -458 0
18 -458 0
-15 -18 -458 0
-15 -459 0
-18 -459 0
15 18 459 0
21 -460 0
24 -460 0
-21 -24 -460 0
-21 -461 0
-24 -461 0
21 24 461 0
27 -462 0
30 -462 0
-27 -30 -462 0
-27 -463 0
-30 -463 0
27 30 463 0
33 -464 0
36 -464 0
-33 -36 -464 0
-33 -465 0
-36 -465 0
33 36 465 0
4 -466 0
5 -466 0
-4 -5 -466 0
-4 -467 0
-5 -467 0
4 5 467 0
10 -468 0
11 -468 0
-10 -11 -468 0
-10 -469 0
-11 -469 0
10 11 469 0
16 -470 0
17 -470 0
-16 -17 -470 0
-16 -471 0
-17 -471 0
16 17 471 0
22 -472 0
23 -472 0
-22 -23 -472 0
-22 -473 0
-23 -473 0
22 23 473 0
28 -474 0
29 -474 0
-28 -29 -474 0
-28 -475 0
-29 -475 0
28 29 475 0
34 -476 0
35 -476 0
-34 -35 -476 0
-34 -477 0
-35 -477 0
34 35 477 0
4 -478 0
6 -478 0
-4 -6 -478 0
-4 -479 0
-6 -479 0
4 6 479 0
10 -480 0
12 -480 0
-10 -12 -480 0
-10 -481 0
-12 -481 0
10 12 481 0
16 -482 0
18 -482 0
-16 -18 -482 0
-16 -483 0
-18 -483 0
16 18 483 0
22 -484 0
24 -484 0
-22 -24 -484 0
-22 -485 0
-24 -485 0
22 24 485 0
28 -486 0
30 -486 0
-28 -30 -486 0
-28 -487 0
-30 -487 0
28 30 487 0
34 -488 0
36 -488 0
-34 -36 -488 0
-34 -489 0
-36 -489 0
34 36 489 0
5 -490 0
6 -490 0
-5 -6 -490 0
-5 -491 0
-6 -491 0
5 6 491 0
11 -492 0
12 -492 0
-11 -12 -492 0
-11 -493 0
-12 -493 0
11 12 493 0
17 -494 0
18 -494 0
-17 -18 -494 0
-17 -495 0
-18 -495 0
17 18 495 0
23 -496 0
24 -496 0
-23 -24 -496 0
-23 -497 0
-24 -497 0
23 24 497 0
29 -498 0
30 -498 0
-29 -30 -498 0
-29 -499 0
-30 -499 0
29 30 499 0
35 -500 0
36 -500 0
-35 -36 -500 0
-35 -501 0
-36 -501 0
35 36 501 0
-322 502 0
-323 502 0
322 323 -502 0
-324 503 0
-325 503 0
324 325 -503 0
-326 504 0
-327 504 0
326 327 -504 0
-328 505 0
-329 505 0
328 329 -505 0
-330 506 0
-331 506 0
330 331 -506 0
-332 507 0
-333 507 0
332 333 -507 0
508 502 0
508 503 0
508 504 0
508 505 0
508 506 0
508 507 0
508 -502 -503 -504 -505 -506 -507 0
-334 509 0
-335 509 0
334 335 -509 0
-336 510 0
-337 510 0
336 337 -510 0
-338 511 0
-339 511 0
338 339 -511 0
-340 512 0
-341 512 0
340 341 -512 0
-342 513 0
-343 513 0
342 343 -513 0
-344 514 0
-345 514 0
344 345 -514 0
515 502 0
515 503 0
515 504 0
515 505 0
515 506 0
515 507 0
515 -502 -503 -504 -505 -506 -507 0
-346 516 0
-347 516 0
346 347 -516 0
-348 517 0
-349 517 0
348 349 -517 0
-350 518 0
-351 518 0
350 351 -518 0
-352 519 0
-353 519 0
352 353 -519 0
-354 520 0
-355 520 0
354 355 -520 0
-356 521 0
-357 521 0
356 357 -521 0
522 502 0
522 503 0
522 504 0
522 505 0
522 506 0
522 507 0
522 -502 -503 -504 -505 -506 -507 0
-358 523 0
-359 523 0
358 359 -523 0
-360 524 0
-361 524 0
360 361 -524 0
-362 525 0
-363 525 0
362 363 -525 0
-364 526 0
-365 526 0
364 365 -526 0
-366 527 0
-367 527 0
366 367 -527 0
-368 528 0
-369 528 0
368 369 -528 0
529 502 0
529 503 0
529 504 0
529 505 0
529 506 0
529 507 0
529 -502 -503 -504 -505 -506 -507 0
-370 530 0
-371 530 0
370 371 -530 0
-372 531 0
-373 531 0
372 373 -531 0
-374 532 0
-375 532 0
374 375 -532 0
-376 533 0
-377 533 0
376 377 -533 0
-378 534 0
-379 534 0
378 379 -534 0
-380 535 0
-381 535 0
380 381 -535 0
536 502 0
536 503 0
536 504 0
536 505 0
536 506 0
536 507 0
536 -502 -503 -504 -505 -506 -507 0
-322 537 0
-323 537 0
322 323 -537 0
-324 538 0
-325 538 0
324 325 -538 0
-326 539 0
-327 539 0
326 327 -539 0
-328 540 0
-329 540 0
328 329 -540 0
-330 541 0
-331 541 0
330 331 -541 0
-332 542 0
-333 542 0
332 333 -542 0
543 537 0
543 538 0
543 539 0
543 540 0
543 541 0
543 542 0
543 -537 -538 -539 -540 -541 -542 0
-334 544 0
-335 544 0
334 335 -544 0
-336 545 0
-337 545 0
336 337 -545 0
-338 546 0
-339 546 0
338 339 -546 0
-340 547 0
-341 547 0
340 341 -547 0
-342 548 0
-343 548 0
342 343 -548 0
-344 549 0
-345 549 0
344 345 -549 0
550 537 0
550 538 0
550 539 0
550 540 0
550 541 0
550 542 0
550 -537 -538 -539 -540 -541 -542 0
-346 551 0
-347 551 0
346 347 -551 0
-348 552 0
-349 552 0
348 349 -552 0
-350 553 0
-351 553 0
350 351 -553 0
-352 554 0
-353 554 0
352 353 -554 0
-354 555 0
-355 555 0
354 355 -555 0
-356 556 0
-357 556 0
356 357 -556 0
557 537 0
557 538 0
557 539 0
557 540 0
557 541 0
557 542 0
557 -537 -538 -539 -540 -541 -542 0
-358 558 0
-359 558 0
358 359 -558 0
-360 559 0
-361 559 0
360 361 -559 0
-362 560 0
-363 560 0
362 363 -560 0
-364 561 0
-365 561 0
364 365 -561 0
-366 562 0
-367 562 0
366 367 -562 0
-368 563 0
-369 563 0
368 369 -563 0
564 537 0
564 538 0
564 539 0
564 540 0
564 541 0
564 542 0
564 -537 -538 -539 -540 -541 -542 0
-322 565 0
-323 565 0
322 323 -565 0
-324 566 0
-325 566 0
324 325 -566 0
-326 567 0
-327 567 0
326 327 -567 0
-328 568 0
-329 568 0
328 329 -568 0
-330 569 0
-331 569 0
330 331 -569 0
-332 570 0
-333 570 0
332 333 -570 0
571 565 0
571 566 0
571 567 0
571 568 0
571 569 0
571 570 0
571 -565 -566 -567 -568 -569 -570 0
-334 572 0
-335 572 0
334 335 -572 0
-336 573 0
-337 573 0
336 337 -573 0
-338 574 0
-339 574 0
338 339 -574 0
-340 575 0
-341 575 0
340 341 -575 0
-342 576 0
-343 576 0
342 343 -576 0
-344 577 0
-345 577 0
344 345 -577 0
578 565 0
578 566 0
578 567 0
578 568 0
578 569 0
578 570 0
578 -565 -566 -567 -568 -569 -570 0
-346 579 0
-347 579 0
346 347 -579 0
-348 580 0
-349 580 0
348 349 -580 0
-350 581 0
-351 581 0
350 351 -581 0
-352 582 0
-353 582 0
352 353 -582 0
-354 583 0
-355 583 0
354 355 -583 0
-356 584 0
-357 584 0
356 357 -584 0
585 565 0
585 566 0
585 567 0
585 568 0
585 569 0
585 570 0
585 -565 -566 -567 -568 -569 -570 0
-322 586 0
-323 586 0
322 323 -586 0
-324 587 0
-325 587 0
324 325 -587 0
-326 588 0
-327 588 0
326 327 -588 0
-328 589 0
-329 589 0
328 329 -589 0
-330 590 0
-331 590 0
330 331 -590 0
-332 591 0
-333 591 0
332 333 -591 0
592 586 0
592 587 0
592 588 0
592 589 0
592 590 0
592 591 0
592 -586 -587 -588 -589 -590 -591 0
-334 593 0
-335 593 0
334 335 -593 0
-336 594 0
-337 594 0
336 337 -594 0
-338 595 0
-339 595 0
338 339 -595 0
-340 596 0
-341 596 0
340 341 -596 0
-342 597 0
-343 597 0
342 343 -597 0
-344 598 0
-345 598 0
344 345 -598 0
599 586 0
599 587 0
599 588 0
599 589 0
599 590 0
599 591 0
599 -586 -587 -588 -589 -590 -591 0
-322 600 0
-323 600 0
322 323 -600 0
-324 601 0
-325 601 0
324 325 -601 0
-326 602 0
-327 602 0
326 327 -602 0
-328 603 0
-329 603 0
328 329 -603 0
-330 604 0
-331 604 0
330 331 -604 0
-332 605 0
-333 605 0
332 333 -605 0
606 600 0
606 601 0
606 602 0
606 603 0
606 604 0
606 605 0
606 -600 -601 -602 -603 -604 -605 0
-1 0
2 0
-3 0
-4 0
7 0
8 0
-10 0
-12 0
13 0
20 0
-21 0
22 0
-30 0
-35 0
