convert.txt
p cnf 172 597
1 2 3 0
-1 -2 -3 0
2 3 4 0
-2 -3 -4 0
5 6 7 0
-5 -6 -7 0
6 7 8 0
-6 -7 -8 0
9 10 11 0
-9 -10 -11 0
10 11 12 0
-10 -11 -12 0
13 14 15 0
-13 -14 -15 0
14 15 16 0
-14 -15 -16 0
1 5 9 0
-1 -5 -9 0
2 6 10 0
-2 -6 -10 0
3 7 11 0
-3 -7 -11 0
4 8 12 0
-4 -8 -12 0
5 9 13 0
-5 -9 -13 0
6 10 14 0
-6 -10 -14 0
7 11 15 0
-7 -11 -15 0
8 12 16 0
-8 -12 -16 0
1 2 3 0 
-1 -2 -3 0
1 5 9 0
-1 -5 -9 0
5 6 7 0 
-5 -6 -7 0
2 6 10 0
-2 -6 -10 0
9 10 11 0 
-9 -10 -11 0
3 7 11 0
-3 -7 -11 0
13 14 15 0 
-13 -14 -15 0
4 8 12 0
-4 -8 -12 0
1 2 4 0 
-1 -2 -4 0
1 5 13 0
-1 -5 -13 0
5 6 8 0 
-5 -6 -8 0
2 6 14 0
-2 -6 -14 0
9 10 12 0 
-9 -10 -12 0
3 7 15 0
-3 -7 -15 0
13 14 16 0 
-13 -14 -16 0
4 8 16 0
-4 -8 -16 0
1 3 4 0 
-1 -3 -4 0
1 9 13 0
-1 -9 -13 0
5 7 8 0 
-5 -7 -8 0
2 10 14 0
-2 -10 -14 0
9 11 12 0 
-9 -11 -12 0
3 11 15 0
-3 -11 -15 0
13 15 16 0 
-13 -15 -16 0
4 12 16 0
-4 -12 -16 0
2 3 4 0 
-2 -3 -4 0
5 9 13 0
-5 -9 -13 0
6 7 8 0 
-6 -7 -8 0
6 10 14 0
-6 -10 -14 0
10 11 12 0 
-10 -11 -12 0
7 11 15 0
-7 -11 -15 0
14 15 16 0 
-14 -15 -16 0
8 12 16 0
-8 -12 -16 0
1 -17 0
5 -17 0
-1 -5 17 0
-1 -18 0
-5 -18 0
1 5 18 0
2 -19 0
6 -19 0
-2 -6 19 0
-2 -20 0
-6 -20 0
2 6 20 0
3 -21 0
7 -21 0
-3 -7 21 0
-3 -22 0
-7 -22 0
3 7 22 0
4 -23 0
8 -23 0
-4 -8 23 0
-4 -24 0
-8 -24 0
4 8 24 0
1 -25 0
9 -25 0
-1 -9 25 0
-1 -26 0
-9 -26 0
1 9 26 0
2 -27 0
10 -27 0
-2 -10 27 0
-2 -28 0
-10 -28 0
2 10 28 0
3 -29 0
11 -29 0
-3 -11 29 0
-3 -30 0
-11 -30 0
3 11 30 0
4 -31 0
12 -31 0
-4 -12 31 0
-4 -32 0
-12 -32 0
4 12 32 0
1 -33 0
13 -33 0
-1 -13 33 0
-1 -34 0
-13 -34 0
1 13 34 0
2 -35 0
14 -35 0
-2 -14 35 0
-2 -36 0
-14 -36 0
2 14 36 0
3 -37 0
15 -37 0
-3 -15 37 0
-3 -38 0
-15 -38 0
3 15 38 0
4 -39 0
16 -39 0
-4 -16 39 0
-4 -40 0
-16 -40 0
4 16 40 0
5 -41 0
9 -41 0
-5 -9 41 0
-5 -42 0
-9 -42 0
5 9 42 0
6 -43 0
10 -43 0
-6 -10 43 0
-6 -44 0
-10 -44 0
6 10 44 0
7 -45 0
11 -45 0
-7 -11 45 0
-7 -46 0
-11 -46 0
7 11 46 0
8 -47 0
12 -47 0
-8 -12 47 0
-8 -48 0
-12 -48 0
8 12 48 0
5 -49 0
13 -49 0
-5 -13 49 0
-5 -50 0
-13 -50 0
5 13 50 0
6 -51 0
14 -51 0
-6 -14 51 0
-6 -52 0
-14 -52 0
6 14 52 0
7 -53 0
15 -53 0
-7 -15 53 0
-7 -54 0
-15 -54 0
7 15 54 0
8 -55 0
16 -55 0
-8 -16 55 0
-8 -56 0
-16 -56 0
8 16 56 0
9 -57 0
13 -57 0
-9 -13 57 0
-9 -58 0
-13 -58 0
9 13 58 0
10 -59 0
14 -59 0
-10 -14 59 0
-10 -60 0
-14 -60 0
10 14 60 0
11 -61 0
15 -61 0
-11 -15 61 0
-11 -62 0
-15 -62 0
11 15 62 0
12 -63 0
16 -63 0
-12 -16 63 0
-12 -64 0
-16 -64 0
12 16 64 0
-17 65 0
-18 65 0
17 18 -65 0
-19 66 0
-20 66 0
19 20 -66 0
-21 67 0
-22 67 0
21 22 -67 0
-23 68 0
-24 68 0
23 24 -68 0
69 65 0
69 66 0
69 67 0
69 68 0
-69 -65 -66 -67 -68 0
-25 70 0
-26 70 0
25 26 -70 0
-27 71 0
-28 71 0
27 28 -71 0
-29 72 0
-30 72 0
29 30 -72 0
-31 73 0
-32 73 0
31 32 -73 0
74 70 0
74 71 0
74 72 0
74 73 0
-74 -70 -71 -72 -73 0
-33 75 0
-34 75 0
33 34 -75 0
-35 76 0
-36 76 0
35 36 -76 0
-37 77 0
-38 77 0
37 38 -77 0
-39 78 0
-40 78 0
39 40 -78 0
79 75 0
79 76 0
79 77 0
79 78 0
-79 -75 -76 -77 -78 0
-41 80 0
-42 80 0
41 42 -80 0
-43 81 0
-44 81 0
43 44 -81 0
-45 82 0
-46 82 0
45 46 -82 0
-47 83 0
-48 83 0
47 48 -83 0
84 80 0
84 81 0
84 82 0
84 83 0
-84 -80 -81 -82 -83 0
-49 85 0
-50 85 0
49 50 -85 0
-51 86 0
-52 86 0
51 52 -86 0
-53 87 0
-54 87 0
53 54 -87 0
-55 88 0
-56 88 0
55 56 -88 0
89 85 0
89 86 0
89 87 0
89 88 0
-89 -85 -86 -87 -88 0
-57 90 0
-58 90 0
57 58 -90 0
-59 91 0
-60 91 0
59 60 -91 0
-61 92 0
-62 92 0
61 62 -92 0
-63 93 0
-64 93 0
63 64 -93 0
94 90 0
94 91 0
94 92 0
94 93 0
-94 -90 -91 -92 -93 0
1 -95 0
2 -95 0
-1 -2 95 0
-1 -96 0
-2 -96 0
1 2 96 0
5 -97 0
6 -97 0
-5 -6 97 0
-5 -98 0
-6 -98 0
5 6 98 0
9 -99 0
10 -99 0
-9 -10 99 0
-9 -100 0
-10 -100 0
9 10 100 0
13 -101 0
14 -101 0
-13 -14 101 0
-13 -102 0
-14 -102 0
13 14 102 0
1 -103 0
3 -103 0
-1 -3 103 0
-1 -104 0
-3 -104 0
1 3 104 0
5 -105 0
7 -105 0
-5 -7 105 0
-5 -106 0
-7 -106 0
5 7 106 0
9 -107 0
11 -107 0
-9 -11 107 0
-9 -108 0
-11 -108 0
9 11 108 0
13 -109 0
15 -109 0
-13 -15 109 0
-13 -110 0
-15 -110 0
13 15 110 0
1 -111 0
4 -111 0
-1 -4 111 0
-1 -112 0
-4 -112 0
1 4 112 0
5 -113 0
8 -113 0
-5 -8 113 0
-5 -114 0
-8 -114 0
5 8 114 0
9 -115 0
12 -115 0
-9 -12 115 0
-9 -116 0
-12 -116 0
9 12 116 0
13 -117 0
16 -117 0
-13 -16 117 0
-13 -118 0
-16 -118 0
13 16 118 0
2 -119 0
3 -119 0
-2 -3 119 0
-2 -120 0
-3 -120 0
2 3 120 0
6 -121 0
7 -121 0
-6 -7 121 0
-6 -122 0
-7 -122 0
6 7 122 0
10 -123 0
11 -123 0
-10 -11 123 0
-10 -124 0
-11 -124 0
10 11 124 0
14 -125 0
15 -125 0
-14 -15 125 0
-14 -126 0
-15 -126 0
14 15 126 0
2 -127 0
4 -127 0
-2 -4 127 0
-2 -128 0
-4 -128 0
2 4 128 0
6 -129 0
8 -129 0
-6 -8 129 0
-6 -130 0
-8 -130 0
6 8 130 0
10 -131 0
12 -131 0
-10 -12 131 0
-10 -132 0
-12 -132 0
10 12 132 0
14 -133 0
16 -133 0
-14 -16 133 0
-14 -134 0
-16 -134 0
14 16 134 0
3 -135 0
4 -135 0
-3 -4 135 0
-3 -136 0
-4 -136 0
3 4 136 0
7 -137 0
8 -137 0
-7 -8 137 0
-7 -138 0
-8 -138 0
7 8 138 0
11 -139 0
12 -139 0
-11 -12 139 0
-11 -140 0
-12 -140 0
11 12 140 0
15 -141 0
16 -141 0
-15 -16 141 0
-15 -142 0
-16 -142 0
15 16 142 0
-95 143 0
-96 143 0
95 96 -143 0
-97 144 0
-98 144 0
97 98 -144 0
-99 145 0
-100 145 0
99 100 -145 0
-101 146 0
-102 146 0
101 102 -146 0
147 143 0
147 144 0
147 145 0
147 146 0
-147 -143 -144 -145 -146 0
-103 148 0
-104 148 0
103 104 -148 0
-105 149 0
-106 149 0
105 106 -149 0
-107 150 0
-108 150 0
107 108 -150 0
-109 151 0
-110 151 0
109 110 -151 0
152 148 0
152 149 0
152 150 0
152 151 0
-152 -148 -149 -150 -151 0
-111 153 0
-112 153 0
111 112 -153 0
-113 154 0
-114 154 0
113 114 -154 0
-115 155 0
-116 155 0
115 116 -155 0
-117 156 0
-118 156 0
117 118 -156 0
157 153 0
157 154 0
157 155 0
157 156 0
-157 -153 -154 -155 -156 0
-119 158 0
-120 158 0
119 120 -158 0
-121 159 0
-122 159 0
121 122 -159 0
-123 160 0
-124 160 0
123 124 -160 0
-125 161 0
-126 161 0
125 126 -161 0
162 158 0
162 159 0
162 160 0
162 161 0
-162 -158 -159 -160 -161 0
-127 163 0
-128 163 0
127 128 -163 0
-129 164 0
-130 164 0
129 130 -164 0
-131 165 0
-132 165 0
131 132 -165 0
-133 166 0
-134 166 0
133 134 -166 0
167 163 0
167 164 0
167 165 0
167 166 0
-167 -163 -164 -165 -166 0
-135 168 0
-136 168 0
135 136 -168 0
-137 169 0
-138 169 0
137 138 -169 0
-139 170 0
-140 170 0
139 140 -170 0
-141 171 0
-142 171 0
141 142 -171 0
172 168 0
172 169 0
172 170 0
172 171 0
-172 -168 -169 -170 -171 0
1 0
-2 0
3 0
5 0
-6 0
-8 0
9 0
-11 0
12 0
